original problem has 14872 variables (476 bin, 13776 int, 0 impl, 620 cont) and 34014 constraints
1/1 feasible solution given by solution candidate storage, new primal bound 1.590000e+02

presolving:
(round 1, fast)       6900 del vars, 1814 del conss, 308 add conss, 34120 chg bounds, 10080 chg sides, 10080 chg coeffs, 0 upgd conss, 2310 impls, 95 clqs
(round 2, fast)       6900 del vars, 11558 del conss, 308 add conss, 34120 chg bounds, 10164 chg sides, 15358 chg coeffs, 0 upgd conss, 7112 impls, 2999 clqs
   (0.2s) running MILP presolver
   (0.7s) MILP presolver (15 rounds): 1620 aggregations, 56 fixings, 0 bound changes
(round 3, medium)     8576 del vars, 34154 del conss, 20864 add conss, 34120 chg bounds, 10164 chg sides, 15358 chg coeffs, 0 upgd conss, 9684 impls, 2845 clqs
(round 4, fast)       8576 del vars, 34154 del conss, 20960 add conss, 34120 chg bounds, 10277 chg sides, 15358 chg coeffs, 0 upgd conss, 10986 impls, 3106 clqs
(round 5, fast)       8576 del vars, 34154 del conss, 20960 add conss, 34120 chg bounds, 10301 chg sides, 15358 chg coeffs, 0 upgd conss, 10986 impls, 3106 clqs
(round 6, exhaustive) 8576 del vars, 34209 del conss, 20960 add conss, 34120 chg bounds, 10305 chg sides, 15358 chg coeffs, 0 upgd conss, 10986 impls, 3106 clqs
(round 7, exhaustive) 8576 del vars, 34209 del conss, 20960 add conss, 34120 chg bounds, 10305 chg sides, 15358 chg coeffs, 15243 upgd conss, 10986 impls, 3106 clqs
   (2.3s) probing: 1000/3212 (31.1%) - 0 fixings, 0 aggregations, 213344 implications, 0 bound changes
   (2.3s) probing: 1001/3212 (31.2%) - 0 fixings, 0 aggregations, 213639 implications, 0 bound changes
   (2.3s) probing aborted: 1000/1000 successive useless probings
presolving (8 rounds: 8 fast, 4 medium, 3 exhaustive):
 8576 deleted vars, 34209 deleted constraints, 20960 added constraints, 34120 tightened bounds, 0 added holes, 10305 changed sides, 15358 changed coefficients
 159793 implications, 87711 cliques
presolved problem has 6296 variables (3164 bin, 2972 int, 96 impl, 64 cont) and 20765 constraints
  12446 constraints of type <varbound>
   2797 constraints of type <setppc>
   5522 constraints of type <linear>
Presolving Time: 2.23
transformed 1/1 original solutions to the transformed problem space

 time | node  | left  |LP iter|LP it/n|mem/heur|mdpt |vars |cons |rows |cuts |sepa|confs|strbr|  dualbound   | primalbound  |  gap   | compl. 
  3.2s|     1 |     0 |  6162 |     - |   122M |   0 |6296 |  20k|  20k|   0 |  0 |   0 |   0 | 6.000000e+00 | 1.590000e+02 |2550.00%| unknown
  3.2s|     1 |     2 |  6162 |     - |   122M |   0 |6296 |  20k|  20k|   0 |  1 |   0 |   0 | 6.000000e+00 | 1.590000e+02 |2550.00%| unknown

SCIP Status        : solving was interrupted [node limit reached]
Solving Time (sec) : 3.19
Solving Nodes      : 1
Primal Bound       : +1.58999999999997e+02 (1 solutions)
Dual Bound         : +6.00000000000000e+00
Gap                : 2550.00 %
wrote problem to file /mnt/lscratch/users/dferrario/Adaptive-Cutsel-MILP/TransformedInstances/allcolor10__trans__seed__1.mps
